50
1 0 21
2 0 81
2 1 58
3 0 52
3 1 75
3 2 7
4 0 33
4 1 20
4 2 19
4 3 97
5 0 36
5 1 56
5 2 61
5 3 13
5 4 40
6 0 40
6 1 89
6 2 19
6 3 89
6 4 99
6 5 6
7 0 64
7 1 29
7 2 18
7 3 89
7 4 70
7 5 91
7 6 65
8 0 56
8 1 83
8 2 77
8 3 71
8 4 81
8 5 6
8 6 58
8 7 47
9 0 90
9 1 34
9 2 65
9 3 8
9 4 15
9 5 56
9 6 38
9 7 40
9 8 21
10 0 97
10 1 74
10 2 45
10 3 5
10 4 6
10 5 71
10 6 29
10 7 29
10 8 19
10 9 76
11 0 36
11 1 72
11 2 62
11 3 72
11 4 33
11 5 69
11 6 62
11 7 71
11 8 92
11 9 97
11 10 67
12 0 87
12 1 49
12 2 25
12 3 33
12 4 19
12 5 14
12 6 27
12 7 92
12 8 62
12 9 56
12 10 37
12 11 19
13 0 18
13 1 17
13 2 88
13 3 77
13 4 92
13 5 4
13 6 65
13 7 86
13 8 78
13 9 68
13 10 63
13 11 59
13 12 85
14 0 73
14 1 38
14 2 97
14 3 42
14 4 11
14 5 76
14 6 38
14 7 98
14 8 22
14 9 34
14 10 92
14 11 97
14 12 14
14 13 26
15 0 30
15 1 93
15 2 98
15 3 42
15 4 81
15 5 40
15 6 91
15 7 42
15 8 70
15 9 66
15 10 37
15 11 59
15 12 5
15 13 30
15 14 57
16 0 89
16 1 88
16 2 94
16 3 30
16 4 71
16 5 7
16 6 93
16 7 57
16 8 79
16 9 40
16 10 55
16 11 77
16 12 66
16 13 75
16 14 20
16 15 18
17 0 50
17 1 22
17 2 65
17 3 7
17 4 29
17 5 87
17 6 10
17 7 85
17 8 47
17 9 17
17 10 91
17 11 86
17 12 73
17 13 35
17 14 8
17 15 80
17 16 56
18 0 45
18 1 83
18 2 89
18 3 52
18 4 53
18 5 94
18 6 36
18 7 60
18 8 42
18 9 71
18 10 66
18 11 5
18 12 11
18 13 59
18 14 64
18 15 41
18 16 33
18 17 92
19 0 62
19 1 85
19 2 29
19 3 35
19 4 92
19 5 93
19 6 41
19 7 82
19 8 44
19 9 27
19 10 50
19 11 17
19 12 31
19 13 100
19 14 90
19 15 86
19 16 70
19 17 84
19 18 29
20 0 27
20 1 22
20 2 11
20 3 44
20 4 50
20 5 69
20 6 14
20 7 87
20 8 84
20 9 5
20 10 83
20 11 37
20 12 18
20 13 70
20 14 38
20 15 79
20 16 7
20 17 67
20 18 29
20 19 43
21 0 15
21 1 28
21 2 36
21 3 25
21 4 25
21 5 20
21 6 18
21 7 32
21 8 37
21 9 13
21 10 26
21 11 59
21 12 25
21 13 51
21 14 95
21 15 70
21 16 26
21 17 89
21 18 73
21 19 41
21 20 98
22 0 100
22 1 50
22 2 5
22 3 51
22 4 53
22 5 89
22 6 81
22 7 35
22 8 20
22 9 97
22 10 95
22 11 68
22 12 72
22 13 55
22 14 28
22 15 8
22 16 56
22 17 16
22 18 25
22 19 6
22 20 74
22 21 36
23 0 79
23 1 11
23 2 5
23 3 95
23 4 61
23 5 7
23 6 39
23 7 23
23 8 46
23 9 85
23 10 8
23 11 38
23 12 94
23 13 5
23 14 46
23 15 64
23 16 39
23 17 92
23 18 7
23 19 77
23 20 28
23 21 63
23 22 16
24 0 19
24 1 13
24 2 89
24 3 41
24 4 44
24 5 55
24 6 37
24 7 11
24 8 13
24 9 35
24 10 43
24 11 11
24 12 48
24 13 61
24 14 10
24 15 34
24 16 2
24 17 7
24 18 42
24 19 74
24 20 13
24 21 39
24 22 43
24 23 82
25 0 42
25 1 10
25 2 54
25 3 20
25 4 27
25 5 24
25 6 1
25 7 98
25 8 81
25 9 7
25 10 79
25 11 63
25 12 42
25 13 29
25 14 96
25 15 79
25 16 32
25 17 67
25 18 50
25 19 23
25 20 89
25 21 13
25 22 9
25 23 81
25 24 87
26 0 48
26 1 27
26 2 23
26 3 46
26 4 47
26 5 17
26 6 82
26 7 8
26 8 94
26 9 39
26 10 76
26 11 19
26 12 7
26 13 8
26 14 42
26 15 55
26 16 4
26 17 15
26 18 82
26 19 75
26 20 72
26 21 5
26 22 16
26 23 93
26 24 7
26 25 74
27 0 19
27 1 92
27 2 46
27 3 67
27 4 71
27 5 39
27 6 3
27 7 96
27 8 49
27 9 59
27 10 80
27 11 5
27 12 52
27 13 83
27 14 24
27 15 49
27 16 10
27 17 86
27 18 33
27 19 74
27 20 53
27 21 54
27 22 53
27 23 6
27 24 23
27 25 78
27 26 11
28 0 86
28 1 40
28 2 52
28 3 62
28 4 13
28 5 89
28 6 9
28 7 64
28 8 85
28 9 68
28 10 36
28 11 9
28 12 44
28 13 7
28 14 59
28 15 55
28 16 57
28 17 66
28 18 73
28 19 56
28 20 12
28 21 65
28 22 60
28 23 80
28 24 95
28 25 4
28 26 34
28 27 50
29 0 70
29 1 67
29 2 94
29 3 71
29 4 99
29 5 31
29 6 71
29 7 10
29 8 58
29 9 27
29 10 10
29 11 43
29 12 38
29 13 2
29 14 21
29 15 93
29 16 44
29 17 100
29 18 86
29 19 26
29 20 31
29 21 61
29 22 2
29 23 63
29 24 19
29 25 83
29 26 10
29 27 40
29 28 9
30 0 26
30 1 34
30 2 27
30 3 74
30 4 40
30 5 17
30 6 60
30 7 87
30 8 31
30 9 51
30 10 89
30 11 36
30 12 19
30 13 26
30 14 14
30 15 14
30 16 56
30 17 38
30 18 67
30 19 94
30 20 77
30 21 47
30 22 79
30 23 37
30 24 27
30 25 60
30 26 20
30 27 68
30 28 93
30 29 89
31 0 11
31 1 41
31 2 4
31 3 15
31 4 45
31 5 76
31 6 7
31 7 30
31 8 66
31 9 12
31 10 25
31 11 78
31 12 88
31 13 52
31 14 37
31 15 88
31 16 61
31 17 60
31 18 59
31 19 75
31 20 14
31 21 50
31 22 14
31 23 61
31 24 24
31 25 75
31 26 98
31 27 38
31 28 100
31 29 2
31 30 5
32 0 68
32 1 82
32 2 44
32 3 59
32 4 99
32 5 84
32 6 66
32 7 58
32 8 47
32 9 41
32 10 98
32 11 42
32 12 59
32 13 34
32 14 23
32 15 26
32 16 69
32 17 5
32 18 19
32 19 78
32 20 1
32 21 81
32 22 70
32 23 12
32 24 99
32 25 81
32 26 78
32 27 40
32 28 72
32 29 62
32 30 53
32 31 99
33 0 79
33 1 29
33 2 37
33 3 49
33 4 15
33 5 32
33 6 7
33 7 2
33 8 55
33 9 98
33 10 71
33 11 36
33 12 69
33 13 91
33 14 28
33 15 99
33 16 21
33 17 99
33 18 71
33 19 5
33 20 12
33 21 71
33 22 54
33 23 87
33 24 22
33 25 76
33 26 52
33 27 45
33 28 82
33 29 42
33 30 79
33 31 17
33 32 58
34 0 6
34 1 45
34 2 49
34 3 35
34 4 78
34 5 73
34 6 56
34 7 51
34 8 96
34 9 1
34 10 82
34 11 83
34 12 41
34 13 42
34 14 22
34 15 23
34 16 17
34 17 74
34 18 49
34 19 67
34 20 31
34 21 87
34 22 55
34 23 25
34 24 26
34 25 14
34 26 20
34 27 12
34 28 44
34 29 6
34 30 50
34 31 81
34 32 29
34 33 43
35 0 52
35 1 17
35 2 99
35 3 92
35 4 35
35 5 86
35 6 35
35 7 40
35 8 67
35 9 26
35 10 81
35 11 77
35 12 12
35 13 11
35 14 45
35 15 4
35 16 30
35 17 33
35 18 43
35 19 77
35 20 29
35 21 75
35 22 35
35 23 37
35 24 77
35 25 74
35 26 29
35 27 70
35 28 33
35 29 11
35 30 76
35 31 96
35 32 50
35 33 44
35 34 56
36 0 86
36 1 47
36 2 4
36 3 44
36 4 64
36 5 77
36 6 5
36 7 10
36 8 27
36 9 18
36 10 30
36 11 71
36 12 97
36 13 64
36 14 21
36 15 17
36 16 94
36 17 6
36 18 52
36 19 80
36 20 86
36 21 26
36 22 85
36 23 10
36 24 56
36 25 34
36 26 30
36 27 68
36 28 95
36 29 31
36 30 67
36 31 79
36 32 12
36 33 77
36 34 84
36 35 73
37 0 14
37 1 92
37 2 55
37 3 24
37 4 3
37 5 23
37 6 65
37 7 76
37 8 88
37 9 58
37 10 29
37 11 77
37 12 17
37 13 60
37 14 93
37 15 6
37 16 63
37 17 62
37 18 7
37 19 35
37 20 39
37 21 43
37 22 89
37 23 70
37 24 5
37 25 68
37 26 41
37 27 62
37 28 3
37 29 84
37 30 77
37 31 81
37 32 38
37 33 71
37 34 81
37 35 2
37 36 79
38 0 25
38 1 89
38 2 25
38 3 55
38 4 98
38 5 82
38 6 59
38 7 66
38 8 30
38 9 28
38 10 12
38 11 45
38 12 59
38 13 93
38 14 87
38 15 24
38 16 64
38 17 42
38 18 70
38 19 99
38 20 10
38 21 71
38 22 52
38 23 5
38 24 86
38 25 53
38 26 33
38 27 27
38 28 50
38 29 90
38 30 99
38 31 28
38 32 31
38 33 98
38 34 59
38 35 53
38 36 41
38 37 75
39 0 93
39 1 51
39 2 13
39 3 23
39 4 46
39 5 25
39 6 60
39 7 22
39 8 66
39 9 88
39 10 7
39 11 88
39 12 80
39 13 3
39 14 69
39 15 51
39 16 37
39 17 23
39 18 54
39 19 36
39 20 82
39 21 61
39 22 26
39 23 44
39 24 35
39 25 65
39 26 49
39 27 56
39 28 81
39 29 62
39 30 5
39 31 10
39 32 100
39 33 6
39 34 52
39 35 19
39 36 92
39 37 53
39 38 64
40 0 42
40 1 87
40 2 21
40 3 76
40 4 15
40 5 21
40 6 35
40 7 16
40 8 2
40 9 42
40 10 58
40 11 4
40 12 45
40 13 65
40 14 46
40 15 50
40 16 88
40 17 89
40 18 88
40 19 80
40 20 31
40 21 51
40 22 23
40 23 61
40 24 37
40 25 79
40 26 35
40 27 31
40 28 76
40 29 64
40 30 77
40 31 23
40 32 11
40 33 63
40 34 63
40 35 62
40 36 34
40 37 15
40 38 44
40 39 69
41 0 16
41 1 15
41 2 50
41 3 82
41 4 38
41 5 95
41 6 56
41 7 20
41 8 2
41 9 85
41 10 18
41 11 1
41 12 42
41 13 76
41 14 80
41 15 22
41 16 99
41 17 2
41 18 48
41 19 59
41 20 11
41 21 94
41 22 81
41 23 27
41 24 37
41 25 3
41 26 49
41 27 32
41 28 27
41 29 74
41 30 53
41 31 83
41 32 94
41 33 21
41 34 16
41 35 62
41 36 51
41 37 46
41 38 73
41 39 67
41 40 32
42 0 87
42 1 38
42 2 65
42 3 93
42 4 99
42 5 21
42 6 33
42 7 68
42 8 97
42 9 5
42 10 68
42 11 38
42 12 23
42 13 31
42 14 98
42 15 18
42 16 98
42 17 48
42 18 19
42 19 84
42 20 95
42 21 1
42 22 42
42 23 88
42 24 29
42 25 91
42 26 29
42 27 38
42 28 49
42 29 28
42 30 50
42 31 39
42 32 87
42 33 37
42 34 86
42 35 17
42 36 89
42 37 18
42 38 63
42 39 86
42 40 48
42 41 53
43 0 98
43 1 9
43 2 92
43 3 11
43 4 78
43 5 83
43 6 13
43 7 3
43 8 16
43 9 42
43 10 45
43 11 79
43 12 49
43 13 43
43 14 6
43 15 73
43 16 77
43 17 11
43 18 79
43 19 43
43 20 44
43 21 32
43 22 95
43 23 48
43 24 31
43 25 18
43 26 37
43 27 68
43 28 98
43 29 8
43 30 79
43 31 72
43 32 91
43 33 58
43 34 34
43 35 63
43 36 22
43 37 35
43 38 78
43 39 71
43 40 62
43 41 28
43 42 56
44 0 73
44 1 18
44 2 34
44 3 5
44 4 58
44 5 92
44 6 83
44 7 48
44 8 70
44 9 31
44 10 14
44 11 34
44 12 88
44 13 10
44 14 7
44 15 38
44 16 32
44 17 25
44 18 41
44 19 44
44 20 10
44 21 79
44 22 37
44 23 63
44 24 33
44 25 88
44 26 87
44 27 78
44 28 67
44 29 36
44 30 100
44 31 15
44 32 7
44 33 59
44 34 9
44 35 59
44 36 82
44 37 51
44 38 6
44 39 94
44 40 30
44 41 92
44 42 21
44 43 23
45 0 2
45 1 69
45 2 48
45 3 91
45 4 80
45 5 29
45 6 86
45 7 25
45 8 29
45 9 78
45 10 59
45 11 64
45 12 6
45 13 27
45 14 7
45 15 44
45 16 100
45 17 47
45 18 88
45 19 50
45 20 79
45 21 79
45 22 32
45 23 66
45 24 64
45 25 5
45 26 15
45 27 73
45 28 58
45 29 96
45 30 61
45 31 77
45 32 1
45 33 78
45 34 93
45 35 81
45 36 26
45 37 82
45 38 77
45 39 14
45 40 39
45 41 73
45 42 39
45 43 85
45 44 49
46 0 73
46 1 55
46 2 42
46 3 17
46 4 25
46 5 29
46 6 29
46 7 7
46 8 62
46 9 16
46 10 88
46 11 45
46 12 74
46 13 63
46 14 48
46 15 40
46 16 90
46 17 59
46 18 89
46 19 3
46 20 22
46 21 30
46 22 76
46 23 73
46 24 32
46 25 21
46 26 9
46 27 45
46 28 17
46 29 32
46 30 29
46 31 52
46 32 36
46 33 27
46 34 68
46 35 43
46 36 9
46 37 16
46 38 42
46 39 62
46 40 66
46 41 74
46 42 32
46 43 28
46 44 37
46 45 69
47 0 83
47 1 54
47 2 93
47 3 92
47 4 26
47 5 74
47 6 93
47 7 16
47 8 14
47 9 50
47 10 92
47 11 41
47 12 3
47 13 85
47 14 13
47 15 77
47 16 41
47 17 69
47 18 90
47 19 94
47 20 32
47 21 21
47 22 39
47 23 33
47 24 98
47 25 19
47 26 11
47 27 50
47 28 48
47 29 20
47 30 21
47 31 53
47 32 28
47 33 13
47 34 83
47 35 32
47 36 19
47 37 69
47 38 80
47 39 22
47 40 96
47 41 58
47 42 38
47 43 15
47 44 75
47 45 71
47 46 9
48 0 36
48 1 100
48 2 56
48 3 65
48 4 41
48 5 56
48 6 52
48 7 51
48 8 98
48 9 12
48 10 87
48 11 72
48 12 66
48 13 16
48 14 71
48 15 95
48 16 77
48 17 14
48 18 4
48 19 91
48 20 90
48 21 50
48 22 71
48 23 58
48 24 71
48 25 75
48 26 4
48 27 90
48 28 19
48 29 79
48 30 26
48 31 91
48 32 33
48 33 12
48 34 14
48 35 38
48 36 11
48 37 59
48 38 36
48 39 59
48 40 1
48 41 96
48 42 57
48 43 66
48 44 60
48 45 38
48 46 17
48 47 55
49 0 89
49 1 43
49 2 27
49 3 86
49 4 51
49 5 47
49 6 34
49 7 81
49 8 83
49 9 46
49 10 46
49 11 11
49 12 63
49 13 38
49 14 32
49 15 66
49 16 99
49 17 98
49 18 30
49 19 23
49 20 44
49 21 49
49 22 16
49 23 54
49 24 50
49 25 53
49 26 40
49 27 46
49 28 26
49 29 29
49 30 19
49 31 22
49 32 62
49 33 78
49 34 39
49 35 74
49 36 18
49 37 73
49 38 21
49 39 73
49 40 10
49 41 39
49 42 32
49 43 93
49 44 36
49 45 29
49 46 65
49 47 63
49 48 9
